(set-logic QF_NRA_ODE)
(declare-fun x () Real [0.000000, 15.000000])
(declare-fun v () Real [-18.000000, 18.000000])
(declare-fun x_0_0 () Real [0.000000, 15.000000])
(declare-fun x_0_t () Real [0.000000, 15.000000])
(declare-fun x_1_0 () Real [0.000000, 15.000000])
(declare-fun x_1_t () Real [0.000000, 15.000000])
(declare-fun x_2_0 () Real [0.000000, 15.000000])
(declare-fun x_2_t () Real [0.000000, 15.000000])
(declare-fun x_3_0 () Real [0.000000, 15.000000])
(declare-fun x_3_t () Real [0.000000, 15.000000])
(declare-fun x_4_0 () Real [0.000000, 15.000000])
(declare-fun x_4_t () Real [0.000000, 15.000000])
(declare-fun x_5_0 () Real [0.000000, 15.000000])
(declare-fun x_5_t () Real [0.000000, 15.000000])
(declare-fun x_6_0 () Real [0.000000, 15.000000])
(declare-fun x_6_t () Real [0.000000, 15.000000])
(declare-fun x_7_0 () Real [0.000000, 15.000000])
(declare-fun x_7_t () Real [0.000000, 15.000000])
(declare-fun x_8_0 () Real [0.000000, 15.000000])
(declare-fun x_8_t () Real [0.000000, 15.000000])
(declare-fun x_9_0 () Real [0.000000, 15.000000])
(declare-fun x_9_t () Real [0.000000, 15.000000])
(declare-fun x_10_0 () Real [0.000000, 15.000000])
(declare-fun x_10_t () Real [0.000000, 15.000000])
(declare-fun v_0_0 () Real [-18.000000, 18.000000])
(declare-fun v_0_t () Real [-18.000000, 18.000000])
(declare-fun v_1_0 () Real [-18.000000, 18.000000])
(declare-fun v_1_t () Real [-18.000000, 18.000000])
(declare-fun v_2_0 () Real [-18.000000, 18.000000])
(declare-fun v_2_t () Real [-18.000000, 18.000000])
(declare-fun v_3_0 () Real [-18.000000, 18.000000])
(declare-fun v_3_t () Real [-18.000000, 18.000000])
(declare-fun v_4_0 () Real [-18.000000, 18.000000])
(declare-fun v_4_t () Real [-18.000000, 18.000000])
(declare-fun v_5_0 () Real [-18.000000, 18.000000])
(declare-fun v_5_t () Real [-18.000000, 18.000000])
(declare-fun v_6_0 () Real [-18.000000, 18.000000])
(declare-fun v_6_t () Real [-18.000000, 18.000000])
(declare-fun v_7_0 () Real [-18.000000, 18.000000])
(declare-fun v_7_t () Real [-18.000000, 18.000000])
(declare-fun v_8_0 () Real [-18.000000, 18.000000])
(declare-fun v_8_t () Real [-18.000000, 18.000000])
(declare-fun v_9_0 () Real [-18.000000, 18.000000])
(declare-fun v_9_t () Real [-18.000000, 18.000000])
(declare-fun v_10_0 () Real [-18.000000, 18.000000])
(declare-fun v_10_t () Real [-18.000000, 18.000000])
(declare-fun time_0 () Real [0.000000, 3.000000])
(declare-fun time_1 () Real [0.000000, 3.000000])
(declare-fun time_2 () Real [0.000000, 3.000000])
(declare-fun time_3 () Real [0.000000, 3.000000])
(declare-fun time_4 () Real [0.000000, 3.000000])
(declare-fun time_5 () Real [0.000000, 3.000000])
(declare-fun time_6 () Real [0.000000, 3.000000])
(declare-fun time_7 () Real [0.000000, 3.000000])
(declare-fun time_8 () Real [0.000000, 3.000000])
(declare-fun time_9 () Real [0.000000, 3.000000])
(declare-fun time_10 () Real [0.000000, 3.000000])
(declare-fun mode_0 () Real [1.000000, 2.000000])
(declare-fun mode_1 () Real [1.000000, 2.000000])
(declare-fun mode_2 () Real [1.000000, 2.000000])
(declare-fun mode_3 () Real [1.000000, 2.000000])
(declare-fun mode_4 () Real [1.000000, 2.000000])
(declare-fun mode_5 () Real [1.000000, 2.000000])
(declare-fun mode_6 () Real [1.000000, 2.000000])
(declare-fun mode_7 () Real [1.000000, 2.000000])
(declare-fun mode_8 () Real [1.000000, 2.000000])
(declare-fun mode_9 () Real [1.000000, 2.000000])
(declare-fun mode_10 () Real [1.000000, 2.000000])
(define-ode flow_1 ((= d/dt[v] (+ (- 0 9.8) (* 0.1 (^ v 2)))) (= d/dt[x] v)))
(define-ode flow_2 ((= d/dt[v] (- (- 0 9.8) (* 0.1 (^ v 2)))) (= d/dt[x] v)))
(assert (and (and (= v_0_0 0) (>= x_0_0 5)) (= mode_0 1) (= [v_0_t x_0_t] (integral 0. time_0 [v_0_0 x_0_0] flow_1)) (= mode_0 1) (forall_t 1 [0 time_0] (<= v_0_t 0)) (<= v_0_t 0) (<= v_0_0 0) (forall_t 1 [0 time_0] (>= x_0_t 0)) (>= x_0_t 0) (>= x_0_0 0) (= mode_1 2) (= x_0_t 0) (= v_1_0 (* -0.95 v_0_t)) (= x_1_0 x_0_t) (= [v_1_t x_1_t] (integral 0. time_1 [v_1_0 x_1_0] flow_2)) (= mode_1 2) (forall_t 2 [0 time_1] (>= v_1_t 0)) (>= v_1_t 0) (>= v_1_0 0) (forall_t 2 [0 time_1] (>= x_1_t 0)) (>= x_1_t 0) (>= x_1_0 0) (= mode_2 1) (= v_1_t 0) (= v_2_0 v_1_t) (= x_2_0 x_1_t) (= [v_2_t x_2_t] (integral 0. time_2 [v_2_0 x_2_0] flow_1)) (= mode_2 1) (forall_t 1 [0 time_2] (<= v_2_t 0)) (<= v_2_t 0) (<= v_2_0 0) (forall_t 1 [0 time_2] (>= x_2_t 0)) (>= x_2_t 0) (>= x_2_0 0) (= mode_3 2) (= x_2_t 0) (= v_3_0 (* -0.95 v_2_t)) (= x_3_0 x_2_t) (= [v_3_t x_3_t] (integral 0. time_3 [v_3_0 x_3_0] flow_2)) (= mode_3 2) (forall_t 2 [0 time_3] (>= v_3_t 0)) (>= v_3_t 0) (>= v_3_0 0) (forall_t 2 [0 time_3] (>= x_3_t 0)) (>= x_3_t 0) (>= x_3_0 0) (= mode_4 1) (= v_3_t 0) (= v_4_0 v_3_t) (= x_4_0 x_3_t) (= [v_4_t x_4_t] (integral 0. time_4 [v_4_0 x_4_0] flow_1)) (= mode_4 1) (forall_t 1 [0 time_4] (<= v_4_t 0)) (<= v_4_t 0) (<= v_4_0 0) (forall_t 1 [0 time_4] (>= x_4_t 0)) (>= x_4_t 0) (>= x_4_0 0) (= mode_5 2) (= x_4_t 0) (= v_5_0 (* -0.95 v_4_t)) (= x_5_0 x_4_t) (= [v_5_t x_5_t] (integral 0. time_5 [v_5_0 x_5_0] flow_2)) (= mode_5 2) (forall_t 2 [0 time_5] (>= v_5_t 0)) (>= v_5_t 0) (>= v_5_0 0) (forall_t 2 [0 time_5] (>= x_5_t 0)) (>= x_5_t 0) (>= x_5_0 0) (= mode_6 1) (= v_5_t 0) (= v_6_0 v_5_t) (= x_6_0 x_5_t) (= [v_6_t x_6_t] (integral 0. time_6 [v_6_0 x_6_0] flow_1)) (= mode_6 1) (forall_t 1 [0 time_6] (<= v_6_t 0)) (<= v_6_t 0) (<= v_6_0 0) (forall_t 1 [0 time_6] (>= x_6_t 0)) (>= x_6_t 0) (>= x_6_0 0) (= mode_7 2) (= x_6_t 0) (= v_7_0 (* -0.95 v_6_t)) (= x_7_0 x_6_t) (= [v_7_t x_7_t] (integral 0. time_7 [v_7_0 x_7_0] flow_2)) (= mode_7 2) (forall_t 2 [0 time_7] (>= v_7_t 0)) (>= v_7_t 0) (>= v_7_0 0) (forall_t 2 [0 time_7] (>= x_7_t 0)) (>= x_7_t 0) (>= x_7_0 0) (= mode_8 1) (= v_7_t 0) (= v_8_0 v_7_t) (= x_8_0 x_7_t) (= [v_8_t x_8_t] (integral 0. time_8 [v_8_0 x_8_0] flow_1)) (= mode_8 1) (forall_t 1 [0 time_8] (<= v_8_t 0)) (<= v_8_t 0) (<= v_8_0 0) (forall_t 1 [0 time_8] (>= x_8_t 0)) (>= x_8_t 0) (>= x_8_0 0) (= mode_9 2) (= x_8_t 0) (= v_9_0 (* -0.95 v_8_t)) (= x_9_0 x_8_t) (= [v_9_t x_9_t] (integral 0. time_9 [v_9_0 x_9_0] flow_2)) (= mode_9 2) (forall_t 2 [0 time_9] (>= v_9_t 0)) (>= v_9_t 0) (>= v_9_0 0) (forall_t 2 [0 time_9] (>= x_9_t 0)) (>= x_9_t 0) (>= x_9_0 0) (= mode_10 1) (= v_9_t 0) (= v_10_0 v_9_t) (= x_10_0 x_9_t) (= [v_10_t x_10_t] (integral 0. time_10 [v_10_0 x_10_0] flow_1)) (= mode_10 1) (forall_t 1 [0 time_10] (<= v_10_t 0)) (<= v_10_t 0) (<= v_10_0 0) (forall_t 1 [0 time_10] (>= x_10_t 0)) (>= x_10_t 0) (>= x_10_0 0) (= mode_10 1) (>= x_10_t 0.45)))
(check-sat)
(exit)
